
Gurobi 11.0.3 (linux64) logging started Mon Nov 25 13:37:55 2024

Set parameter LogFile to value "/home/yihong/Coding/OR_SUC/SUC_results_bigM100000_thread4/case24_ieee_rts_theta0.5_epsilon0.05_gurobi_seed130000_num_gen100_N_WDR50_load_scaling_factor1_ori_T24quadra_cost.txt"
Set parameter TimeLimit to value 3600
Gurobi Optimizer version 11.0.3 build v11.0.3rc0 (linux64 - "Ubuntu 20.04.6 LTS")

CPU model: AMD EPYC 7532 32-Core Processor, instruction set [SSE2|AVX|AVX2]
Thread count: 64 physical cores, 128 logical processors, using up to 4 threads

Optimize a model with 139876 rows, 29811 columns and 10221862 nonzeros
Model fingerprint: 0xdccc3b2d
Model has 2400 quadratic constraints
Variable types: 27411 continuous, 2400 integer (2400 binary)
Coefficient statistics:
  Matrix range     [3e-04, 3e+03]
  QMatrix range    [2e-03, 8e-03]
  QLMatrix range   [7e-01, 6e+01]
  Objective range  [1e+00, 1e+00]
  Bounds range     [1e+00, 1e+00]
  RHS range        [3e-03, 9e+03]
Presolve removed 48713 rows and 17520 columns (presolve time = 5s) ...
Presolve removed 45909 rows and 12416 columns
Presolve time: 7.98s
Presolved: 93967 rows, 17395 columns, 2045003 nonzeros
Presolved model has 2400 quadratic constraint(s)
Variable types: 14995 continuous, 2400 integer (2400 binary)

Deterministic concurrent LP optimizer: primal and dual simplex (primal and dual model)
Showing primal log only...

Root relaxation presolved: 93967 rows, 14995 columns, 2045003 nonzeros


Root simplex log...

Iteration    Objective       Primal Inf.    Dual Inf.      Time
       0    1.0992991e+06   2.410228e+04   1.245013e+10      9s
   16337    1.9526729e+05   9.048115e+02   3.091492e+09     10s
Concurrent spin time: 0.01s

Solved with primal simplex

Root relaxation: objective 4.802483e+04, 7425 iterations, 2.11 seconds (2.81 work units)

    Nodes    |    Current Node    |     Objective Bounds      |     Work
 Expl Unexpl |  Obj  Depth IntInf | Incumbent    BestBd   Gap | It/Node Time

     0     0 48024.8263    0    -          - 48024.8263      -     - 2166s
     0     0 583007.025    0  656          - 583007.025      -     - 2176s
     0     0 599165.555    0   26          - 599165.555      -     - 2179s
     0     0 599184.967    0   26          - 599184.967      -     - 2182s
     0     0 599192.762    0   26          - 599192.762      -     - 2185s
     0     0 599193.999    0   26          - 599193.999      -     - 2187s
     0     0 599193.999    0   26          - 599193.999      -     - 2188s
     0     0 599194.595    0   26          - 599194.595      -     - 2189s
     0     0 599194.595    0   26          - 599194.595      -     - 2191s
     0     0 599196.293    0   26          - 599196.293      -     - 2193s
     0     0 599196.293    0   26          - 599196.293      -     - 2198s
     0     0 599196.293    0   26          - 599196.293      -     - 2200s
     0     2 599196.293    0   26          - 599196.293      -     - 2636s
    19    24 599352.268    5   25          - 599219.217      -   106 2640s
    52    62 599372.962   14   25          - 599219.217      -  91.4 2645s
   112   133 599430.784   26   25          - 599219.217      -  75.1 2650s
   231   256 600242.925   64   21          - 599219.217      -  52.7 2655s
   424   469 602340.686   93   10          - 599219.217      -  50.6 2660s
   686   713 599465.331   12   23          - 599244.493      -  46.6 2666s
   820   746 599925.230   34   26          - 599244.493      -  43.2 2671s
   822   747 599289.859   14   31          - 599244.493      -  43.1 2676s
   824   749 599941.026   88   26          - 599244.493      -  43.0 2680s
   828   751 599294.965   12   36          - 599244.493      -  42.8 2685s
   831   753 599961.935   30   34          - 599244.493      -  42.7 2690s
   835   756 600736.112   73   42          - 599244.493      -  42.5 2696s
   838   758 600698.895   67   37          - 599244.493      -  42.3 2700s
   842   761 600634.754   70   40          - 599244.493      -  42.1 2705s

Cutting planes:
  Gomory: 5
  Implied bound: 10
  MIR: 36
  Flow cover: 19
  RLT: 3

Explored 842 nodes (65426 simplex iterations) in 3605.10 seconds (2249.95 work units)
Thread count was 4 (of 128 available processors)

Solution count 0

Time limit reached
Best objective -, best bound 5.992444929203e+05, gap -
